phononcalculation.
&inputph
  tr2_ph = 1e-14
  prefix='lead'
  fildvscf='pbdv'
  amass(1)= 207.2
  outdir='./'
  fildyn='pb.dyn'
  electron_phonon='interpolated'
  el_ph_sigma=0.002
  el_ph_nsigma=10
  trans=.true.
  ldisp=.true.
  reduce_io = .true.
  nq1=2, nq2=2, nq3=2
/
