 &control
     calculation='scf'
     restart_mode='from_scratch',
     prefix='lead',
     pseudo_dir = './',
     outdir='./'
     wf_collect = .true.
/
 &system
     ibrav=  2,
     celldm(1) = 9.2225583816,
     nat= 1,
     ntyp= 1,
     ecutwfc = 60.0
     ecutrho = 480
     occupations='smearing',
     smearing='marzari-vanderbilt',
     degauss=0.05
/
 &electrons
     conv_thr =  1.0d-14
     mixing_beta = 0.7
 /
 ATOMIC_SPECIES
  Pb 207.2 pb.UPF
 ATOMIC_POSITIONS
  Pb 0.00 0.00 0.00
K_POINTS {automatic}
 10 10 10 0 0 0
